15
0 10 17 21 20 11 11 13 17 5 8 13 17 7 11 
7 0 15 6 11 8 12 6 11 21 9 13 5 13 13 
24 15 0 22 11 24 12 5 24 23 6 20 14 22 18 
7 18 24 0 7 22 18 5 12 22 19 20 13 13 13 
15 20 20 22 0 14 7 25 17 9 24 21 6 22 7 
14 7 22 17 19 0 6 10 18 11 12 8 25 8 17 
17 5 16 20 15 16 0 25 24 18 13 9 10 13 6 
13 22 20 19 9 22 20 0 9 11 5 13 18 21 6 
7 12 8 20 23 7 22 14 0 12 16 7 6 17 21 
14 5 9 17 19 20 18 13 23 0 20 20 9 13 19 
11 8 21 23 8 16 15 19 20 20 0 13 25 11 11 
24 14 9 11 5 9 18 8 14 8 17 0 20 5 22 
9 20 24 6 24 25 5 14 6 15 25 7 0 19 21 
24 25 8 12 20 16 19 11 10 25 22 11 7 0 17 
21 22 24 23 13 15 11 10 18 13 6 6 24 8 0 
